74 74
29 12
43 21
21 18
19 5
45 26
23 6
67 1
60 22
65 27
27 19
11 24
52 33
8 25
51 16
49 35
57 26
58 34
34 8
22 34
37 29
73 32
9 10
5 19
1 31
53 31
30 14
35 11
3 32
54 22
39 2
61 23
68 3
50 33
24 10
44 27
46 14
16 21
26 35
56 30
71 37
20 12
41 3
4 28
13 8
10 13
7 20
33 11
59 37
17 2
40 20
28 15
69 30
62 16
38 36
2 18
72 5
48 13
42 4
47 17
12 24
55 25
74 9
15 17
25 15
32 7
31 23
66 9
70 4
14 28
18 36
36 29
63 7
64 1
6 6
